unsat
(:binary-propagations  78
 :conflicts            1
 :final-checks         1
 :max-generation       1
 :max-memory           33.72
 :memory               23.22
 :mk-bool-var          5976
 :mk-clause            2207
 :mk-clause-binary     11201
 :num-allocs           333162895
 :num-checks           1
 :propagations         78
 :quant-instantiations 1882
 :restarts             1
 :rlimit-count         1247831
 :time                 0.27)
